(set-logic QF_BV)
(declare-fun _substvar_762_ () (_ BitVec 32))
(declare-fun _substvar_552_ () Bool)
(declare-fun _substvar_342_ () (_ BitVec 16))
(declare-fun _substvar_350_ () (_ BitVec 16))
(declare-fun _substvar_558_ () Bool)
(declare-fun _substvar_323_ () (_ BitVec 32))
(declare-fun _substvar_339_ () (_ BitVec 16))
(declare-fun _substvar_354_ () (_ BitVec 8))
(declare-fun _substvar_126_ () (_ BitVec 8))
(declare-fun _substvar_560_ () Bool)
(declare-fun _substvar_326_ () (_ BitVec 32))
(declare-fun _substvar_355_ () (_ BitVec 16))
(declare-fun _substvar_346_ () (_ BitVec 8))
(assert (let ( (?v_10 ((_ zero_extend 24) _substvar_126_)) (?v_3 ((_ zero_extend 24) _substvar_346_)) (?v_1 ((_ zero_extend 24) _substvar_354_))) (let ((?v_0 (bvadd ?v_1 (_ bv1 32)))) (let ((?v_2 (bvadd (bvadd ?v_0 (_ bv4268253 32)) (_ bv0 32)))) (let ((?v_4 (bvadd ?v_2 (_ bv6 32)))) (let ((?v_6 (bvadd (bvadd ?v_4 (bvadd ?v_3 (_ bv1 32))) (_ bv2 32)))) (let ((?v_5 (bvadd ?v_6 ((_ zero_extend 16) _substvar_342_)))) (let ((?v_8 (bvadd ?v_5 (_ bv6 32)))) (let ((?v_9 (bvadd ?v_8 (_ bv0 32)))) (let ((?v_13 (bvadd ?v_9 (_ bv2 32)))) (let ((?v_12 (bvadd ?v_13 ?v_10))) (let ((?v_18 (bvadd (bvadd ?v_12 (_ bv1 32)) (_ bv0 32)))) (let ((?v_19 (bvadd (bvadd ?v_18 (_ bv1 32)) (_ bv0 32)))) (and true true (= _substvar_342_ _substvar_339_) (= _substvar_355_ _substvar_350_) (bvsle (_ bv1040 32) (bvsub ?v_19 (_ bv4268071 32))) true (not (= ?v_1 (_ bv1 32))) true _substvar_560_ true (bvule (bvsub ?v_5 (_ bv4268232 32)) (_ bv846 32)) _substvar_558_ true (= _substvar_326_ (_ bv1 32)) true (bvule (bvadd ?v_9 (_ bv3 32)) (_ bv4269078 32)) true (not (= _substvar_323_ (_ bv0 32))) (bvule (bvadd ?v_12 (_ bv2 32)) (_ bv4269078 32)) _substvar_552_ (not (= _substvar_762_ (_ bv0 32))) true true true true true true))))))))))))))
(check-sat)
(exit)
